
Welcome to IBM(R) ILOG(R) CPLEX(R) Interactive Optimizer 22.1.1.0
  with Simplex, Mixed Integer & Barrier Optimizers
5725-A06 5725-A29 5724-Y48 5724-Y49 5724-Y54 5724-Y55 5655-Y21
Copyright IBM Corp. 1988, 2022.  All Rights Reserved.

Type 'help' for a list of available commands.
Type 'help' followed by a command name for more
information on commands.

CPLEX> Selected objective sense:  MINIMIZE
Selected objective  name:  00000000
Selected RHS        name:  RHS1
Selected bound      name:  BOUND
Problem 'ee.mps' read.
Read time = 0.03 sec. (3.17 ticks)
CPLEX> New value for time limit in seconds: 7200
CPLEX> New value for parallel optimization mode: -1
CPLEX> New value for default parallel thread count: 40
CPLEX> New value for mixed integer optimality gap tolerance: 1e-13
CPLEX> Version identifier: 22.1.1.0 | 2022-11-28 | 9160aff4d
CPXPARAM_Threads                                 40
CPXPARAM_Parallel                                -1
CPXPARAM_TimeLimit                               7200
CPXPARAM_MIP_Tolerances_MIPGap                   1e-13
Found incumbent of value 0.000000 after 0.00 sec. (0.31 ticks)
Tried aggregator 2 times.
MIP Presolve eliminated 181 rows and 2745 columns.
MIP Presolve modified 6090 coefficients.
Aggregator did 713 substitutions.
Reduced MIP has 3635 rows, 7835 columns, and 28930 nonzeros.
Reduced MIP has 7835 binaries, 0 generals, 0 SOSs, and 0 indicators.
Presolve time = 0.07 sec. (68.90 ticks)
Probing time = 0.03 sec. (5.32 ticks)
Tried aggregator 1 time.
Detecting symmetries...
Reduced MIP has 3635 rows, 7835 columns, and 28930 nonzeros.
Reduced MIP has 7835 binaries, 0 generals, 0 SOSs, and 0 indicators.
Presolve time = 0.02 sec. (22.00 ticks)
Probing time = 0.02 sec. (5.12 ticks)
Clique table members: 18781.
MIP emphasis: balance optimality and feasibility.
MIP search method: dynamic search.
Parallel mode: opportunistic, using up to 40 threads.
Root relaxation solution time = 0.09 sec. (65.32 ticks)

        Nodes                                         Cuts/
   Node  Left     Objective  IInf  Best Integer    Best Bound    ItCnt     Gap

*     0+    0                            0.0000  -1.54000e+13              --- 
*     0+    0                      -4.80000e+12  -1.54000e+13           220.83%
*     0+    0                      -6.00000e+12  -1.54000e+13           156.67%
*     0+    0                      -6.99000e+12  -1.54000e+13           120.31%
*     0+    0                      -8.19000e+12  -1.54000e+13            88.03%
      0     0  -1.53900e+13    69  -8.19000e+12  -1.53900e+13     1980   87.91%
*     0+    0                      -1.53900e+13  -1.53900e+13             0.00%
      0     0  -1.53900e+13   148  -1.53900e+13      Cuts: 64     2262    0.00%
*     0+    0                      -1.53900e+13  -1.53900e+13             0.00%
      0     0  -1.53900e+13   194  -1.53900e+13      Cuts: 76     2588    0.00%
*     0+    0                      -1.53900e+13  -1.53900e+13             0.00%
*     0+    0                      -1.53900e+13  -1.53900e+13             0.00%
      0     2  -1.53900e+13   155  -1.53900e+13  -1.53900e+13     2588    0.00%
Elapsed time = 1.81 sec. (941.59 ticks, tree = 0.02 MB, solutions = 10)
    222    56        cutoff        -1.53900e+13  -1.53900e+13    32220    0.00%
    871    56  -1.53900e+13   156  -1.53900e+13  -1.53900e+13    24795    0.00%
   1824    88        cutoff        -1.53900e+13  -1.53900e+13    40139    0.00%
   2793   425        cutoff        -1.53900e+13  -1.53900e+13   157823    0.00%
   4038   312  -1.53900e+13   183  -1.53900e+13  -1.53900e+13   120019    0.00%
   5238   451  -1.53900e+13    51  -1.53900e+13  -1.53900e+13   158773    0.00%
*  5534   441      integral     0  -1.53900e+13  -1.53900e+13   161338    0.00%
   6302   517  -1.53900e+13   184  -1.53900e+13  -1.53900e+13   177864    0.00%
   7108  1452  -1.53900e+13   154  -1.53900e+13  -1.53900e+13   330340    0.00%
   7891  1808  -1.53900e+13    55  -1.53900e+13  -1.53900e+13   375610    0.00%
  11616  2179  -1.53900e+13    72  -1.53900e+13  -1.53900e+13   421230    0.00%
Elapsed time = 6.90 sec. (4045.86 ticks, tree = 19.39 MB, solutions = 13)

Performing restart 1

Repeating presolve.
Tried aggregator 4 times.
MIP Presolve eliminated 760 rows and 2170 columns.
MIP Presolve added 18 rows and 0 columns.
MIP Presolve modified 1763 coefficients.
Aggregator did 336 substitutions.
Reduced MIP has 2550 rows, 5307 columns, and 18999 nonzeros.
Reduced MIP has 5307 binaries, 0 generals, 0 SOSs, and 0 indicators.
Presolve time = 0.12 sec. (128.51 ticks)
Tried aggregator 2 times.
MIP Presolve eliminated 48 rows and 79 columns.
Aggregator did 10 substitutions.
Reduced MIP has 2492 rows, 5209 columns, and 18638 nonzeros.
Reduced MIP has 5209 binaries, 0 generals, 0 SOSs, and 0 indicators.
Presolve time = 0.04 sec. (31.26 ticks)
Tried aggregator 1 time.
MIP Presolve eliminated 9 rows and 8 columns.
Reduced MIP has 2483 rows, 5201 columns, and 18609 nonzeros.
Reduced MIP has 5201 binaries, 0 generals, 0 SOSs, and 0 indicators.
Presolve time = 0.03 sec. (20.97 ticks)
Represolve time = 0.34 sec. (262.49 ticks)
  13018     0  -1.53900e+13   246  -1.53900e+13      Cuts: 12   636330    0.00%
  13018     0  -1.53900e+13   254  -1.53900e+13      Cuts: 33   636475    0.00%
  13018     0  -1.53900e+13   261  -1.53900e+13      Cuts: 13   636565    0.00%
  13018     0  -1.53900e+13   286  -1.53900e+13      Cuts: 15   636629    0.00%
  13018     0  -1.53900e+13   294  -1.53900e+13      Cuts: 17   636692    0.00%
  13018     0  -1.53900e+13   279  -1.53900e+13      Cuts: 20   636768    0.00%
  13018     0  -1.53900e+13   300  -1.53900e+13      Cuts: 17   636843    0.00%
  13018     0  -1.53900e+13   290  -1.53900e+13      Cuts: 15   637022    0.00%
  13018     0  -1.53900e+13   261  -1.53900e+13      Cuts: 17   637101    0.00%
  13018     0  -1.53900e+13   222  -1.53900e+13      Cuts: 18   637167    0.00%
  13018     0  -1.53900e+13   268  -1.53900e+13       Cuts: 9   637249    0.00%
  13018     0  -1.53900e+13   267  -1.53900e+13       Cuts: 6   637342    0.00%
  13018     0  -1.53900e+13   277  -1.53900e+13      Cuts: 33   637394    0.00%
  13018     0  -1.53900e+13   278  -1.53900e+13      Cuts: 12   637468    0.00%
  13018    14        cutoff        -1.53900e+13  -1.53900e+13   640932    0.00%
  15519    73        cutoff        -1.53900e+13  -1.53900e+13   667141    0.00%
  16681    68  -1.53900e+13    83  -1.53900e+13  -1.53900e+13   728720    0.00%

Clique cuts applied:  9
Cover cuts applied:  247
Mixed integer rounding cuts applied:  13
Zero-half cuts applied:  89
Lift and project cuts applied:  1
Gomory fractional cuts applied:  11

Root node processing (before b&c):
  Real time             =    1.13 sec. (939.79 ticks)
Parallel b&c, 40 threads:
  Real time             =   12.21 sec. (7956.65 ticks)
  Sync time (average)   =    3.10 sec.
  Wait time (average)   =    0.12 sec.
                          ------------
Total (root+branch&cut) =   13.34 sec. (8896.44 ticks)

Solution pool: 13 solutions saved.

MIP - Integer optimal solution:  Objective = -1.5389999789e+13
Solution time =   13.48 sec.  Iterations = 784810  Nodes = 16722
Deterministic time = 8896.47 ticks  (660.03 ticks/sec)

CPLEX> Solution 'p14' written to file 'ee.sol'.
CPLEX> 